NAME: random-55-14517
TYPE: TSP
COMMENT: size=55 seed=14517
DIMENSION: 112
EDGE_WEIGHT_TYPE: EUC_2D
NODE_COORD_SECTION
+0 219 610
-0 219 610
+1 912 458
-1 994 741
+2 124 57
-2 631 925
+3 603 567
-3 207 268
+4 338 76
-4 78 814
+5 831 430
-5 703 140
+6 419 458
-6 438 402
+7 639 382
-7 44 634
+8 634 256
-8 575 953
+9 95 973
-9 601 416
+10 797 263
-10 151 120
+11 419 580
-11 533 626
+12 472 824
-12 348 156
+13 239 518
-13 251 531
+14 994 275
-14 904 138
+15 870 694
-15 568 151
+16 136 364
-16 748 837
+17 450 71
-17 670 505
+18 61 266
-18 775 764
+19 551 743
-19 787 766
+20 456 705
-20 383 899
+21 501 882
-21 796 958
+22 844 413
-22 101 29
+23 620 197
-23 877 815
+24 818 477
-24 323 38
+25 417 325
-25 964 640
+26 372 280
-26 253 336
+27 572 676
-27 257 713
+28 815 765
-28 5 785
+29 21 347
-29 831 233
+30 380 27
-30 277 78
+31 885 768
-31 516 156
+32 80 331
-32 242 850
+33 640 7
-33 339 141
+34 977 877
-34 879 892
+35 828 384
-35 315 419
+36 194 132
-36 354 643
+37 175 225
-37 332 722
+38 752 270
-38 520 946
+39 580 182
-39 357 416
+40 332 950
-40 124 440
+41 129 15
-41 163 881
+42 384 546
-42 954 866
+43 985 508
-43 291 989
+44 919 436
-44 348 576
+45 167 987
-45 903 988
+46 726 817
-46 777 27
+47 834 581
-47 321 888
+48 390 459
-48 241 708
+49 997 992
-49 124 700
+50 501 644
-50 396 547
+51 785 955
-51 100 265
+52 726 779
-52 217 724
+53 489 899
-53 761 51
+54 8 277
-54 188 906
+55 481 969
-55 693 130
PRECEDENCE_SECTION
+0 -0
+1 -1
+2 -2
+3 -3
+4 -4
+5 -5
+6 -6
+7 -7
+8 -8
+9 -9
+10 -10
+11 -11
+12 -12
+13 -13
+14 -14
+15 -15
+16 -16
+17 -17
+18 -18
+19 -19
+20 -20
+21 -21
+22 -22
+23 -23
+24 -24
+25 -25
+26 -26
+27 -27
+28 -28
+29 -29
+30 -30
+31 -31
+32 -32
+33 -33
+34 -34
+35 -35
+36 -36
+37 -37
+38 -38
+39 -39
+40 -40
+41 -41
+42 -42
+43 -43
+44 -44
+45 -45
+46 -46
+47 -47
+48 -48
+49 -49
+50 -50
+51 -51
+52 -52
+53 -53
+54 -54
+55 -55
EOF
